p cnf 511 2039
298 -367 -313 0
298 367 313 0
-298 -367 313 0
-298 367 -313 0
367 -154 -251 0
367 154 251 0
-367 -154 251 0
-367 154 -251 0
-313 -19 -210 0
-313 19 210 0
313 -19 210 0
313 19 -210 0
-154 -500 -333 0
-154 500 333 0
154 -500 333 0
154 500 -333 0
251 -372 -260 0
251 372 260 0
-251 -372 260 0
-251 372 -260 0
19 -227 -78 0
19 227 78 0
-19 -227 0
-19 227 -78 0
-210 -77 -300 0
-210 77 300 0
210 -77 300 0
210 77 -300 0
500 -120 -383 0
500 120 383 0
-500 -120 383 0
-500 120 -383 0
333 -248 -269 0
333 248 269 0
-333 -248 269 0
248 -269 0
372 -375 -118 0
372 375 118 0
-372 -375 118 0
-372 375 -118 0
260 -488 -443 0
260 488 443 0
-260 -488 443 0
-260 488 -443 0
227 -134 -510 0
227 134 510 0
-227 -134 510 0
-227 134 -510 0
-78 -265 -122 0
-78 265 122 0
78 -265 122 0
78 265 -122 0
77 -263 -245 0
77 263 245 0
-77 -263 245 0
-77 263 -245 0
300 -216 -438 0
-300 -216 438 0
-300 216 -438 0
-120 -67 -165 0
-120 67 165 0
120 -67 165 0
120 67 -165 0
-383 -320 -9 0
-383 320 9 0
383 -320 9 0
383 320 -9 0
248 -157 -314 0
248 157 314 0
-157 314 0
-248 157 -314 0
269 -355 -259 0
269 355 259 0
-269 -355 259 0
-269 355 -259 0
375 -338 -25 0
375 338 25 0
-375 -338 25 0
-375 338 -25 0
118 -48 -236 0
118 48 236 0
-118 -48 236 0
-118 48 -236 0
488 -190 -80 0
488 190 80 0
-488 -190 80 0
-488 190 -80 0
-443 -399 -285 0
-443 399 285 0
443 -399 285 0
443 399 -285 0
134 -464 0
134 464 484 0
-134 -464 484 0
-134 464 -484 0
510 -340 -487 0
510 340 487 0
-510 -340 487 0
-510 340 -487 0
265 -445 -357 0
265 445 357 0
-265 -445 357 0
-265 445 -357 0
122 -421 -266 0
122 421 266 0
-122 -421 266 0
-122 421 -266 0
263 -492 -382 0
263 492 382 0
-263 -492 382 0
-263 492 -382 0
245 -402 -84 0
245 402 84 0
-245 -402 84 0
-245 402 -84 0
216 -177 -121 0
216 177 121 0
-216 121 0
-216 177 -121 0
-438 -477 -385 0
-438 477 385 0
438 -477 385 0
438 477 -385 0
-67 -501 -143 0
-67 501 143 0
67 -501 143 0
67 501 -143 0
-165 -279 -108 0
-165 279 108 0
165 -279 108 0
165 279 0
-320 -206 -211 0
-320 206 211 0
320 -206 211 0
320 206 -211 0
9 -33 -244 0
9 33 244 0
-9 -33 244 0
-9 33 -244 0
-157 -364 -235 0
-157 364 235 0
157 -364 235 0
157 364 -235 0
314 -334 -456 0
314 334 456 0
-314 -334 456 0
-314 334 -456 0
-355 -30 -51 0
-355 30 51 0
355 -30 51 0
355 30 -51 0
-259 -64 -86 0
-259 64 86 0
259 -64 86 0
259 64 -86 0
-338 -377 -390 0
-338 377 390 0
338 -377 390 0
338 377 -390 0
-25 -250 -3 0
-25 250 3 0
25 -250 3 0
25 250 -3 0
-48 -169 -362 0
-48 169 362 0
48 -169 362 0
48 169 -362 0
236 -432 -127 0
236 432 127 0
-236 -432 127 0
-236 432 -127 0
190 -43 -455 0
190 43 455 0
-190 -43 455 0
-190 43 -455 0
-80 -149 -136 0
-80 149 136 0
80 -149 136 0
80 149 -136 0
399 -307 -82 0
399 307 82 0
-399 -307 82 0
-399 307 -82 0
285 -252 -228 0
285 252 228 0
-285 -252 228 0
-285 252 -228 0
-464 -323 -237 0
-464 323 237 0
464 -323 237 0
464 323 -237 0
484 -321 -193 0
484 321 193 0
-484 -321 193 0
-484 321 -193 0
340 -271 -249 0
340 271 249 0
-340 -271 249 0
-340 271 -249 0
487 -239 -499 0
487 239 499 0
-487 -239 499 0
-487 239 -499 0
445 -21 -102 0
445 21 102 0
-445 -21 102 0
-445 21 -102 0
-357 -205 -363 0
-357 205 363 0
357 -205 363 0
357 205 -363 0
-421 -1 -58 0
-421 1 58 0
421 -1 58 0
421 1 -58 0
266 -469 -460 0
266 469 460 0
-266 -469 460 0
-266 469 -460 0
492 -476 -380 0
492 476 380 0
-492 -476 380 0
-492 476 -380 0
382 -68 -129 0
382 68 129 0
-382 -68 129 0
-382 -129 0
402 -61 -282 0
402 61 282 0
-402 -61 282 0
-402 61 -282 0
-84 -316 -410 0
-84 316 410 0
84 -316 410 0
84 316 -410 0
177 -503 -37 0
177 503 37 0
-177 -503 37 0
-177 503 -37 0
-121 -199 -130 0
-121 199 130 0
121 -199 130 0
121 199 -130 0
477 -326 -473 0
477 326 473 0
-477 -326 473 0
-477 326 -473 0
-385 -294 -160 0
-385 294 160 0
385 -294 160 0
385 294 -160 0
-501 -509 -335 0
-501 509 335 0
501 -509 335 0
501 509 -335 0
-143 -70 -137 0
-143 70 137 0
143 -70 137 0
143 70 -137 0
-279 -4 -466 0
-279 4 466 0
279 -4 466 0
279 4 -466 0
108 -155 -467 0
108 155 467 0
-108 -155 467 0
-108 155 -467 0
-206 -489 -346 0
-206 489 346 0
206 -489 346 0
206 489 -346 0
211 -459 -396 0
211 459 396 0
-211 -459 396 0
-211 459 0
-33 -42 -242 0
-33 42 242 0
33 -42 242 0
33 42 -242 0
-244 -52 -374 0
-244 52 374 0
244 -52 374 0
244 52 -374 0
364 -497 -197 0
364 497 197 0
-364 -497 197 0
-364 497 -197 0
-235 -261 -391 0
-235 261 391 0
235 -261 391 0
235 261 -391 0
-334 -6 -187 0
-334 6 187 0
334 -6 187 0
334 6 -187 0
456 -272 -76 0
456 272 76 0
-456 -272 76 0
-456 272 -76 0
30 -387 -436 0
30 387 436 0
-30 -387 436 0
-30 387 -436 0
-51 -418 -373 0
-51 418 373 0
51 -418 373 0
51 418 -373 0
-64 -168 -128 0
-64 168 128 0
64 -168 128 0
64 168 -128 0
86 -506 -229 0
86 506 229 0
-86 -506 229 0
-86 506 -229 0
377 -17 -173 0
377 17 173 0
-377 -17 173 0
-377 17 -173 0
-390 -135 -24 0
-390 135 24 0
390 -135 24 0
135 -24 0
250 -431 -196 0
250 431 196 0
-250 -431 196 0
-250 431 -196 0
3 -290 -302 0
3 290 302 0
-3 -290 302 0
-3 290 -302 0
169 -247 -109 0
169 247 109 0
-169 -247 109 0
-169 247 -109 0
362 -188 -368 0
362 188 368 0
-362 -188 368 0
-362 188 -368 0
-432 -297 -12 0
-432 297 12 0
432 -297 12 0
432 297 -12 0
127 -502 -411 0
127 502 0
-127 -502 411 0
-127 502 -411 0
-43 -73 -295 0
-43 73 295 0
43 -73 295 0
43 73 -295 0
-455 -324 -331 0
-455 324 331 0
455 -324 331 0
455 324 -331 0
-149 -286 -246 0
-149 286 246 0
-286 246 0
149 286 -246 0
-136 -348 -8 0
-136 348 8 0
136 -348 8 0
136 348 -8 0
307 -209 -255 0
307 209 255 0
-307 -209 255 0
-307 209 -255 0
82 -472 -268 0
82 472 268 0
-82 -472 268 0
-82 472 -268 0
252 -345 -230 0
252 345 230 0
-252 -345 230 0
-252 345 -230 0
-228 -94 -447 0
-228 94 447 0
228 -94 447 0
228 94 -447 0
-323 -483 -212 0
-323 483 212 0
323 -483 212 0
323 483 -212 0
237 -494 -358 0
237 494 358 0
-237 -494 358 0
-237 494 -358 0
321 -381 -172 0
321 381 172 0
-321 -381 172 0
-321 381 -172 0
-193 -207 -176 0
207 176 0
193 -207 176 0
193 207 -176 0
-271 -62 -474 0
-271 62 474 0
271 -62 474 0
271 62 -474 0
249 -162 -7 0
249 162 7 0
-249 -162 7 0
-249 162 -7 0
239 -310 -253 0
239 310 253 0
-239 253 0
-239 310 -253 0
499 -179 -299 0
499 179 299 0
-499 -179 299 0
-499 179 -299 0
21 -425 -369 0
21 425 369 0
-21 -425 369 0
-21 425 -369 0
102 -349 -511 0
102 349 511 0
-102 -349 511 0
-102 349 -511 0
205 -203 -233 0
205 203 233 0
-205 -203 233 0
-205 203 -233 0
363 -287 -289 0
363 287 289 0
-363 -287 289 0
-363 287 -289 0
-1 -378 -119 0
-1 378 119 0
1 -378 119 0
1 378 -119 0
58 -220 -401 0
58 220 401 0
-58 -220 401 0
-58 220 -401 0
469 -104 -457 0
469 104 457 0
-469 -104 457 0
-469 104 -457 0
460 -350 -430 0
460 430 0
-460 -350 430 0
-460 350 -430 0
476 -258 -344 0
476 258 344 0
-476 -258 344 0
-476 258 -344 0
380 -152 -219 0
380 152 219 0
-380 -152 219 0
-380 152 -219 0
-68 -174 -283 0
-68 174 283 0
68 -174 283 0
68 174 -283 0
129 -406 -328 0
129 406 328 0
-129 -406 328 0
-129 406 -328 0
61 -267 -403 0
61 267 403 0
-61 -267 403 0
-61 267 -403 0
282 -23 -125 0
282 23 125 0
-282 -23 125 0
23 -125 0
-316 -359 -441 0
-316 359 441 0
316 -359 441 0
316 359 -441 0
410 -44 -167 0
410 44 167 0
-410 -44 167 0
-410 44 -167 0
503 -191 0
503 53 191 0
-503 -53 191 0
-503 53 -191 0
-37 -336 -366 0
-37 336 366 0
37 -336 366 0
37 336 -366 0
199 -337 -186 0
199 337 186 0
-199 -337 186 0
-199 337 -186 0
130 -166 -304 0
130 166 0
-130 -166 304 0
-130 166 -304 0
-326 -312 -224 0
-326 312 224 0
326 -312 224 0
326 312 -224 0
-473 -458 -504 0
-473 458 504 0
473 -458 504 0
473 458 -504 0
294 -240 -72 0
294 240 72 0
-294 -240 72 0
-294 240 -72 0
-160 -153 -306 0
-160 153 306 0
160 -153 306 0
160 153 -306 0
509 -322 -292 0
509 322 292 0
-509 -322 292 0
-509 322 -292 0
335 -423 -218 0
335 423 218 0
-335 -423 218 0
-335 -218 0
70 -215 -65 0
70 215 65 0
-70 -215 65 0
-70 215 -65 0
137 -103 -204 0
137 103 204 0
-137 -103 204 0
-137 103 -204 0
4 -422 -180 0
4 422 180 0
-4 -422 180 0
-4 422 -180 0
466 -291 -386 0
466 291 386 0
-466 -291 386 0
-466 291 -386 0
155 -214 -270 0
155 214 270 0
-155 -214 270 0
-155 214 -270 0
467 -470 -435 0
467 470 435 0
-467 -470 435 0
-467 470 -435 0
-489 -379 -178 0
-489 379 178 0
489 -379 178 0
489 379 -178 0
-346 -361 -131 0
-346 361 131 0
346 -361 131 0
346 361 -131 0
459 -138 -13 0
459 138 13 0
-459 -138 13 0
-459 138 -13 0
-396 -71 -40 0
-396 71 40 0
396 -71 40 0
396 71 -40 0
-42 -117 -481 0
-42 117 481 0
42 -117 481 0
42 117 -481 0
242 -189 -111 0
242 189 111 0
-242 -189 111 0
-242 189 0
52 -437 -452 0
52 437 452 0
-52 -437 452 0
-52 437 -452 0
374 -140 -16 0
374 140 16 0
-374 -140 16 0
-374 140 -16 0
-497 -185 -141 0
-497 185 141 0
497 -185 141 0
497 185 -141 0
197 -439 -116 0
197 439 116 0
-197 -439 116 0
-197 439 -116 0
261 -27 -280 0
261 27 280 0
-261 -27 280 0
-261 27 -280 0
-391 -158 -305 0
-391 305 0
391 -158 305 0
391 158 -305 0
-6 -148 -327 0
-6 148 327 0
6 -148 327 0
6 148 -327 0
-187 -397 -57 0
-187 397 57 0
187 -397 57 0
187 397 -57 0
272 -408 -123 0
272 408 123 0
-272 -408 0
-272 408 -123 0
-76 -451 -31 0
-76 451 31 0
76 -451 31 0
76 451 -31 0
387 -330 -146 0
387 330 146 0
-387 -330 146 0
-387 330 -146 0
-436 -98 -95 0
-436 98 95 0
436 -98 95 0
436 98 -95 0
418 -161 -389 0
418 161 389 0
-418 -161 389 0
-418 161 -389 0
373 -407 -147 0
373 407 147 0
-373 -407 147 0
-373 407 -147 0
-168 -144 0
-168 454 144 0
168 -454 144 0
168 454 -144 0
128 -256 -482 0
128 256 482 0
-128 -256 482 0
-128 256 -482 0
506 -347 -66 0
506 347 66 0
-506 -347 66 0
-506 347 -66 0
229 -175 -417 0
229 175 417 0
-229 -175 417 0
-229 175 -417 0
17 -181 -124 0
17 181 124 0
-17 -181 124 0
-17 181 -124 0
173 -370 -404 0
173 370 404 0
-173 -370 404 0
-173 370 -404 0
135 -424 -192 0
135 424 192 0
-135 -424 192 0
-135 424 -192 0
-24 -480 -490 0
-24 480 490 0
24 -480 490 0
24 480 -490 0
431 -29 -275 0
431 29 275 0
-431 -29 275 0
-431 29 -275 0
196 -284 -74 0
196 284 74 0
-196 -284 74 0
-196 -74 0
-290 -419 -332 0
-290 419 332 0
290 -419 332 0
290 419 -332 0
302 -195 -434 0
302 195 434 0
-302 -195 434 0
-302 195 -434 0
247 -274 -184 0
247 274 184 0
-247 -274 184 0
-247 274 -184 0
109 -69 -81 0
109 69 81 0
-109 -69 81 0
-109 69 -81 0
188 -257 -20 0
188 257 20 0
-188 -257 20 0
-188 257 -20 0
368 -105 -262 0
105 262 0
-368 -105 262 0
-368 105 -262 0
-297 -303 -427 0
-297 303 427 0
297 -303 427 0
297 303 -427 0
-12 -93 -232 0
-12 93 232 0
12 -93 232 0
12 93 -232 0
-502 -202 -5 0
-502 202 5 0
502 -202 5 0
502 202 -5 0
-411 -491 -420 0
-411 491 420 0
411 -491 420 0
411 491 -420 0
-73 -55 -325 0
-73 55 325 0
73 -55 325 0
73 55 -325 0
295 -139 -309 0
295 139 309 0
-295 -139 309 0
-295 139 0
-324 -360 -222 0
-324 360 222 0
324 -360 222 0
324 360 -222 0
-331 -448 -45 0
-331 448 45 0
331 -448 45 0
331 448 -45 0
-286 -163 -461 0
-286 163 461 0
286 -163 461 0
286 163 -461 0
246 -96 -471 0
246 96 471 0
-246 -96 471 0
-246 96 -471 0
348 -41 -398 0
348 41 398 0
-348 -41 398 0
-348 41 -398 0
8 -495 -238 0
8 495 238 0
-8 -495 238 0
-8 495 -238 0
-209 -450 -315 0
-209 450 315 0
209 -450 315 0
209 450 -315 0
-255 -318 -59 0
-255 318 59 0
255 -318 59 0
255 318 -59 0
-472 -264 -164 0
-472 264 164 0
472 -264 0
472 264 -164 0
268 -170 -395 0
268 170 395 0
-268 -170 395 0
-268 170 -395 0
-345 -132 -60 0
-345 132 60 0
345 -132 60 0
345 132 -60 0
-230 -428 -213 0
-230 428 213 0
230 -428 213 0
428 -213 0
-94 -414 -151 0
-94 414 151 0
94 -414 151 0
94 414 -151 0
447 -319 -475 0
447 319 475 0
-447 -319 475 0
-447 319 -475 0
483 -133 0
483 171 133 0
-483 -171 133 0
-483 171 -133 0
212 -50 -114 0
212 50 114 0
-212 -50 114 0
-212 50 -114 0
494 -32 -393 0
494 32 393 0
-494 -32 393 0
-494 32 -393 0
358 -217 -241 0
358 217 241 0
-358 -217 241 0
-358 217 -241 0
381 -392 -462 0
381 392 462 0
-381 -392 462 0
-381 392 -462 0
172 -97 -99 0
172 97 99 0
-172 -97 99 0
-172 97 -99 0
207 -112 -91 0
207 112 91 0
-207 -112 91 0
-207 112 -91 0
-176 -26 -288 0
-176 26 288 0
176 -26 288 0
176 26 -288 0
-62 -485 -198 0
-62 485 198 0
62 -485 198 0
62 485 -198 0
-474 -496 -341 0
-474 496 341 0
474 -496 341 0
474 -341 0
-162 -507 -38 0
-162 507 38 0
162 -507 38 0
162 507 -38 0
-7 -412 -145 0
-7 412 145 0
7 -412 145 0
7 412 -145 0
310 -353 0
310 353 56 0
-310 -353 56 0
-310 353 -56 0
253 -243 -126 0
253 243 126 0
-253 -243 126 0
-253 243 -126 0
-179 -254 -47 0
-179 254 47 0
179 -254 47 0
179 254 -47 0
299 -221 -339 0
299 221 339 0
-299 -221 339 0
-299 221 -339 0
-425 -223 -49 0
-425 223 49 0
425 -223 49 0
425 223 -49 0
369 -342 -183 0
369 342 183 0
-369 -342 183 0
-369 342 -183 0
-349 -413 -150 0
-349 413 150 0
349 150 0
349 413 -150 0
511 -100 -394 0
511 100 394 0
-511 -100 394 0
-511 100 -394 0
-203 -63 -113 0
-203 63 113 0
203 -63 113 0
203 63 -113 0
-233 -226 -46 0
-233 226 46 0
233 -226 46 0
233 226 -46 0
-287 -371 -28 0
-287 371 28 0
287 -371 28 0
287 371 -28 0
289 -388 -444 0
289 388 444 0
-289 -388 444 0
-289 388 -444 0
378 -486 -201 0
378 486 201 0
-378 -486 201 0
-378 486 -201 0
119 -54 -433 0
119 54 433 0
-119 -54 433 0
-119 54 -433 0
-220 -273 -493 0
-220 273 493 0
220 -273 493 0
220 273 -493 0
401 -110 -156 0
401 156 0
-401 -110 156 0
-401 110 -156 0
-104 -107 -426 0
-104 107 426 0
104 -107 426 0
104 107 -426 0
457 -159 -317 0
457 159 317 0
-457 -159 317 0
-457 159 -317 0
350 -11 -453 0
350 11 453 0
-350 -11 453 0
-350 11 -453 0
430 -234 -34 0
430 234 34 0
-430 -234 34 0
-430 234 -34 0
258 -354 -79 0
258 354 79 0
-258 -354 79 0
-258 354 -79 0
-344 -35 -508 0
-344 35 508 0
344 -35 508 0
344 35 -508 0
152 -208 -351 0
152 208 351 0
-152 -208 351 0
-152 208 -351 0
219 -277 -352 0
219 277 352 0
-219 -277 352 0
-219 277 -352 0
174 -440 -194 0
174 440 194 0
-174 -440 194 0
-174 440 -194 0
-283 -429 -498 0
-283 429 498 0
283 -429 498 0
283 429 -498 0
406 -415 -75 0
406 415 75 0
-406 -415 75 0
-406 415 -75 0
328 -409 -231 0
328 409 231 0
-328 -409 231 0
-328 409 -231 0
267 -106 -281 0
267 106 281 0
-267 -106 281 0
-267 106 -281 0
-403 -311 -83 0
-403 311 83 0
403 -311 83 0
403 311 -83 0
-23 -22 -182 0
-23 22 182 0
-22 182 0
23 22 -182 0
125 -405 -39 0
125 405 39 0
-125 -405 39 0
-125 405 -39 0
-359 -36 -365 0
-359 36 365 0
359 -36 365 0
359 36 -365 0
441 -92 -225 0
441 92 225 0
-441 -92 225 0
-441 92 -225 0
44 -200 -89 0
44 200 89 0
-44 -200 89 0
-44 200 -89 0
167 -329 -15 0
167 329 15 0
-167 -329 15 0
-167 329 -15 0
-53 -400 -465 0
-53 400 465 0
53 -400 465 0
53 400 -465 0
191 -2 -293 0
191 2 293 0
-191 -2 293 0
-191 2 -293 0
-336 -384 -376 0
-336 384 376 0
336 -384 376 0
336 384 -376 0
366 -463 -14 0
366 463 14 0
-366 -463 14 0
-366 463 -14 0
337 -308 -505 0
337 308 505 0
-337 -308 505 0
-337 308 -505 0
186 -479 -416 0
186 479 416 0
-186 -479 416 0
-186 479 -416 0
166 -296 -449 0
166 296 449 0
-166 449 0
-166 296 -449 0
-304 -446 -442 0
-304 446 442 0
304 -446 442 0
304 446 -442 0
312 -87 -343 0
312 87 343 0
-312 -87 343 0
-312 87 -343 0
224 -10 -478 0
224 10 478 0
-224 -10 478 0
-224 10 -478 0
458 -88 -278 0
458 88 278 0
-458 -88 278 0
-458 88 -278 0
-504 -301 -90 0
-504 301 90 0
504 -301 90 0
504 301 -90 0
240 -101 -356 0
240 101 356 0
-240 -101 356 0
-240 101 -356 0
-72 -276 -142 0
-72 276 142 0
72 -276 142 0
72 276 -142 0
153 -85 -468 0
153 85 468 0
-153 -85 468 0
-153 85 -468 0
-306 -18 -115 0
-306 115 0
306 -18 115 0
306 18 -115 0
-466 -100 -287 0
-466 100 287 0
466 -100 287 0
466 100 -287 0
100 -148 -157 0
100 148 157 0
-100 -148 157 0
-100 148 -157 0
-287 -491 -317 0
-287 491 317 0
287 -491 317 0
287 491 -317 0
148 -71 -347 0
148 71 347 0
-148 -71 347 0
-148 71 -347 0
-157 -373 -441 0
-157 373 441 0
157 -373 441 0
157 373 -441 0
491 -217 -132 0
491 217 132 0
-491 -217 132 0
217 -132 0
-317 -209 -493 0
-317 209 493 0
317 -209 493 0
317 209 -493 0
-71 -453 -382 0
-71 453 382 0
71 -453 382 0
71 453 -382 0
347 -471 -200 0
347 471 200 0
-347 -471 200 0
-347 471 -200 0
373 -500 -386 0
373 500 386 0
-373 -500 386 0
-373 500 -386 0
441 -139 -414 0
441 139 414 0
-441 -139 414 0
-441 139 -414 0
-217 -54 -288 0
-217 54 0
217 -54 288 0
217 54 -288 0
-132 -511 -272 0
-132 511 272 0
132 -511 272 0
132 511 -272 0
-209 -480 -147 0
-209 480 147 0
209 -480 147 0
209 480 -147 0
-493 -31 -270 0
-493 31 270 0
493 -31 270 0
493 31 -270 0
-453 -469 -433 0
-453 469 433 0
453 -469 433 0
453 469 -433 0
382 -271 -245 0
382 271 245 0
-382 -271 245 0
-382 271 -245 0
471 -124 -422 0
471 124 422 0
-471 -124 422 0
-471 -422 0
200 -443 -212 0
200 443 212 0
-200 -443 212 0
-200 443 -212 0
500 -423 -378 0
500 423 378 0
-500 -423 378 0
-500 423 -378 0
386 -67 -285 0
386 67 285 0
-386 -67 285 0
-386 67 -285 0
-139 -182 -489 0
-139 182 489 0
139 -182 489 0
139 182 -489 0
-414 -78 -465 0
-414 78 465 0
414 -78 465 0
414 78 -465 0
-54 -483 -417 0
483 417 0
54 -483 417 0
54 483 -417 0
288 -340 -229 0
288 340 229 0
-288 -340 229 0
-288 340 -229 0
511 -43 -472 0
511 43 472 0
-511 -43 472 0
-511 43 -472 0
272 -398 -376 0
272 398 376 0
-272 376 0
-272 398 -376 0
-480 -247 -258 0
-480 247 258 0
480 -247 258 0
480 247 -258 0
147 -291 -436 0
147 291 436 0
-147 -291 436 0
-147 291 -436 0
31 -16 -159 0
31 16 159 0
-31 -16 159 0
-31 16 -159 0
-270 -389 -66 0
-270 389 66 0
270 -389 66 0
270 389 -66 0
-469 -119 -51 0
-469 119 51 0
469 -119 51 0
469 119 -51 0
433 -113 -319 0
433 113 319 0
-433 -113 319 0
-433 113 -319 0
-271 -244 -18 0
-271 244 18 0
271 -244 18 0
271 244 -18 0
-245 -30 -294 0
-245 30 294 0
245 -30 294 0
245 30 -294 0
-124 -95 -329 0
-124 329 0
124 -95 329 0
124 95 -329 0
422 -451 -242 0
422 451 242 0
-422 -451 242 0
-422 451 -242 0
-443 -396 -104 0
-443 396 104 0
443 -396 104 0
443 396 -104 0
212 -262 -412 0
212 262 412 0
-212 -262 0
-212 262 -412 0
423 -163 -144 0
423 163 144 0
-423 -163 144 0
-423 163 -144 0
-378 -25 -331 0
-378 25 331 0
378 -25 331 0
378 25 -331 0
-67 -404 -205 0
-67 404 205 0
67 -404 205 0
67 404 -205 0
285 -456 -467 0
285 456 467 0
-285 -456 467 0
-285 456 -467 0
-182 -44 -174 0
-182 44 174 0
182 -44 174 0
182 44 -174 0
-489 -487 0
-489 112 487 0
489 -112 487 0
489 112 -487 0
78 -448 -268 0
78 448 268 0
-78 -448 268 0
-78 448 -268 0
465 -370 -162 0
465 370 162 0
-465 -370 162 0
-465 370 -162 0
-483 -357 -454 0
-483 357 454 0
483 -357 454 0
483 357 -454 0
-417 -198 -76 0
-417 198 76 0
417 -198 76 0
417 198 -76 0
-340 -326 -160 0
-340 326 160 0
340 -326 160 0
340 326 -160 0
229 -415 -91 0
229 415 91 0
-229 -415 91 0
-229 415 -91 0
-43 -509 -316 0
-43 509 316 0
43 -509 316 0
43 509 -316 0
472 -87 -23 0
472 87 23 0
-472 -87 23 0
-472 87 -23 0
398 -362 -109 0
398 362 109 0
-398 -362 109 0
-398 362 -109 0
376 -496 -286 0
376 496 286 0
-376 -496 286 0
-376 496 -286 0
-247 -289 -83 0
-247 289 83 0
247 -289 83 0
247 289 -83 0
-258 -53 0
-258 53 301 0
258 -53 301 0
258 53 -301 0
291 -169 -224 0
291 169 224 0
-291 -169 224 0
-291 169 -224 0
-436 -192 -193 0
-436 192 193 0
436 -192 193 0
436 192 -193 0
-16 -310 -135 0
310 135 0
16 -310 135 0
16 310 -135 0
159 -299 -9 0
159 299 9 0
-159 -299 9 0
-159 299 -9 0
-389 -342 -14 0
-389 342 14 0
389 -342 14 0
389 342 -14 0
66 -365 -210 0
66 365 210 0
-66 -365 210 0
-66 365 -210 0
-119 -170 -186 0
-119 170 186 0
119 -170 186 0
119 170 -186 0
-51 -11 -108 0
-51 11 108 0
51 -11 108 0
51 11 -108 0
-113 -72 -65 0
-113 72 65 0
113 -72 65 0
113 72 0
319 -225 -219 0
319 225 219 0
-319 -225 219 0
-319 225 -219 0
-244 -206 -61 0
-244 206 61 0
244 -206 61 0
244 206 -61 0
-18 -140 -223 0
-18 140 223 0
18 -140 223 0
18 140 -223 0
30 -56 -276 0
30 56 276 0
-30 -56 276 0
-30 56 -276 0
-294 -435 -21 0
-294 435 21 0
294 -435 21 0
294 435 -21 0
-95 -300 -134 0
-95 134 0
95 -300 134 0
95 300 -134 0
-329 -89 -375 0
-329 89 375 0
329 -89 375 0
329 89 -375 0
451 -63 -4 0
451 63 4 0
-451 -63 4 0
-451 63 -4 0
242 -450 -394 0
242 450 394 0
-242 -450 0
-242 450 -394 0
396 -85 -318 0
396 85 318 0
-396 -85 318 0
-396 85 -318 0
104 -354 -486 0
104 354 486 0
-104 -354 486 0
-104 354 -486 0
-262 -333 -117 0
-262 333 117 0
262 -333 117 0
262 333 -117 0
-412 -156 -293 0
-412 156 293 0
412 -156 293 0
412 156 -293 0
-163 -5 -345 0
-163 5 345 0
163 -5 345 0
163 5 -345 0
144 -250 0
144 151 250 0
-144 -151 250 0
-144 151 -250 0
-25 -507 -133 0
-25 507 133 0
25 -507 133 0
25 507 -133 0
331 -99 -392 0
331 99 392 0
-331 -99 392 0
-331 99 -392 0
-404 -309 -92 0
-404 309 92 0
404 -309 92 0
404 309 -92 0
-205 -29 -322 0
-205 29 322 0
205 -29 322 0
205 29 -322 0
456 -58 -280 0
456 58 280 0
-456 -58 280 0
-456 58 -280 0
-467 -463 -168 0
-467 463 168 0
467 -463 168 0
467 463 -168 0
-44 -177 -10 0
-44 177 10 0
44 -177 10 0
44 177 -10 0
174 -446 -339 0
174 446 339 0
-174 -446 339 0
-174 446 -339 0
112 -419 -93 0
112 419 93 0
-112 -419 93 0
-112 419 -93 0
487 -197 -350 0
487 197 350 0
-487 -197 350 0
-487 197 -350 0
-448 -379 -363 0
-448 379 363 0
448 -379 363 0
448 379 -363 0
268 -227 0
268 227 131 0
-268 -227 131 0
-268 227 -131 0
-370 -202 -395 0
-370 202 395 0
370 -202 395 0
370 202 -395 0
-162 -302 -37 0
-162 302 37 0
162 -302 37 0
162 302 -37 0
357 -207 -502 0
357 207 502 0
-357 -207 502 0
-357 207 -502 0
-454 -7 -430 0
-454 7 430 0
454 -7 430 0
454 7 -430 0
198 -366 -283 0
198 366 283 0
-198 -366 283 0
-198 366 -283 0
76 -211 -45 0
76 211 45 0
-76 -211 45 0
-76 211 -45 0
-326 -482 -253 0
-326 482 253 0
326 -482 253 0
326 482 -253 0
-160 -70 -194 0
-160 70 194 0
160 -70 194 0
160 70 -194 0
-415 -277 -246 0
-415 277 246 0
415 -277 246 0
415 277 -246 0
-91 -98 -458 0
-91 98 458 0
91 -98 458 0
91 98 -458 0
509 -304 -42 0
509 304 42 0
-509 -304 42 0
-509 304 -42 0
316 -208 -495 0
316 208 495 0
-316 -208 495 0
-316 208 -495 0
87 -238 -145 0
87 238 145 0
-87 -238 145 0
-87 238 -145 0
23 -123 -337 0
23 123 337 0
-23 -123 337 0
-23 123 -337 0
-362 -34 -442 0
-362 442 0
362 -34 442 0
362 34 -442 0
109 -167 -416 0
109 167 416 0
-109 -167 416 0
-109 167 -416 0
-496 -149 -257 0
-496 149 257 0
496 -149 257 0
496 149 -257 0
286 -428 -116 0
286 428 116 0
-286 -428 0
-286 428 -116 0
-289 -137 -80 0
-289 137 80 0
289 -137 80 0
289 137 -80 0
83 -303 -222 0
83 303 222 0
-83 -303 222 0
-83 303 -222 0
-53 -230 -96 0
-53 230 96 0
53 -230 96 0
53 230 -96 0
-301 -233 -470 0
-301 233 470 0
301 -233 470 0
301 233 -470 0
169 -323 -90 0
169 323 90 0
-169 -323 90 0
-169 323 -90 0
224 -60 0
224 447 60 0
-224 -447 60 0
-224 447 -60 0
-192 -77 -330 0
-192 77 330 0
192 -77 330 0
192 77 -330 0
193 -141 -360 0
193 141 360 0
-193 -141 360 0
-193 141 -360 0
-310 -374 -353 0
-310 374 353 0
310 -374 353 0
310 374 -353 0
-135 -439 -438 0
-135 439 438 0
135 -439 438 0
135 439 -438 0
299 -459 -187 0
299 459 187 0
-299 -459 187 0
-299 459 -187 0
-9 -315 -39 0
-9 315 39 0
-315 39 0
9 315 -39 0
-342 -74 -248 0
-342 74 248 0
342 -74 248 0
342 74 -248 0
-14 -201 -130 0
-14 201 130 0
14 -201 130 0
14 201 -130 0
-365 -506 -321 0
-365 506 321 0
365 -506 321 0
365 506 -321 0
210 -64 -218 0
210 64 218 0
-210 -64 218 0
-210 64 -218 0
170 -59 -335 0
170 59 335 0
-170 -59 335 0
-170 59 -335 0
-186 -377 -254 0
-186 377 254 0
186 -377 254 0
186 377 -254 0
11 -269 -388 0
11 269 388 0
-11 -269 388 0
-11 269 -388 0
-108 -214 -101 0
-108 214 101 0
108 -214 101 0
108 214 -101 0
-72 -41 -312 0
-72 41 312 0
72 -41 312 0
72 41 -312 0
-65 -231 -503 0
-65 231 503 0
65 -231 503 0
65 231 -503 0
-225 -308 -481 0
-225 308 481 0
225 -308 481 0
225 308 -481 0
219 -410 -298 0
219 410 298 0
-219 298 0
-219 410 -298 0
-206 -22 -121 0
-206 22 121 0
206 -22 121 0
206 22 -121 0
-61 -368 -325 0
-61 368 325 0
61 -368 325 0
61 368 -325 0
140 -332 -264 0
140 332 264 0
-140 -332 264 0
-140 332 0
-223 -292 -86 0
-223 292 86 0
223 -292 86 0
223 292 -86 0
-56 -68 -195 0
-56 68 195 0
56 -68 195 0
56 68 -195 0
-276 -449 -478 0
-276 449 478 0
276 -449 478 0
276 449 -478 0
435 -251 -460 0
435 251 460 0
-435 -251 460 0
-435 251 -460 0
-21 -295 -279 0
-21 295 279 0
21 -295 279 0
21 295 -279 0
300 -175 -6 0
300 6 0
-300 -175 6 0
-300 175 -6 0
-134 -420 -128 0
-134 420 128 0
134 -420 128 0
134 420 -128 0
-89 -237 -477 0
-89 237 477 0
89 -237 477 0
89 237 -477 0
-375 -138 -510 0
-375 138 510 0
375 -138 510 0
375 138 -510 0
63 -33 -1 0
63 33 1 0
-63 -33 1 0
-63 33 -1 0
4 -369 -338 0
4 369 338 0
-4 -369 338 0
-4 369 -338 0
-450 -228 -361 0
-450 228 361 0
450 -228 361 0
450 228 -361 0
-394 -126 -165 0
-394 126 165 0
394 -126 165 0
394 126 -165 0
85 -494 -36 0
85 494 36 0
-85 -494 36 0
-85 494 -36 0
318 -252 0
318 393 252 0
-318 -393 252 0
-318 393 -252 0
-354 -38 -57 0
-354 38 57 0
354 -38 57 0
354 38 -57 0
486 -220 -216 0
486 220 216 0
-486 -220 216 0
-486 220 -216 0
-333 -203 -307 0
-333 203 307 0
333 -203 307 0
333 203 -307 0
-117 -505 -402 0
-117 505 402 0
117 -505 402 0
117 505 -402 0
156 -152 -445 0
156 152 445 0
-156 -152 445 0
-156 152 -445 0
-293 -409 -429 0
-293 409 429 0
-409 429 0
293 409 -429 0
-5 -46 -161 0
-5 46 161 0
5 -46 161 0
5 46 -161 0
-345 -12 -102 0
-345 12 102 0
345 -12 102 0
345 12 -102 0
151 -455 -462 0
151 455 462 0
-151 -455 462 0
-151 -462 0
250 -348 -383 0
250 348 383 0
-250 -348 383 0
-250 348 -383 0
-507 -390 -94 0
-507 390 94 0
507 -390 94 0
507 390 -94 0
-133 -324 -142 0
-133 324 142 0
133 -324 142 0
133 324 -142 0
-99 -266 -499 0
-99 266 499 0
99 -266 499 0
99 266 -499 0
392 -241 -190 0
392 241 190 0
-392 -241 190 0
-392 241 -190 0
-309 -479 -15 0
479 15 0
309 -479 15 0
309 479 -15 0
-92 -320 -155 0
-92 320 155 0
92 -320 155 0
92 320 -155 0
-29 -28 -381 0
-29 28 381 0
29 -28 381 0
29 28 -381 0
-322 -110 -314 0
-322 110 314 0
322 -110 314 0
322 110 -314 0
-58 -497 -127 0
-58 497 127 0
58 -497 127 0
58 497 -127 0
-280 -84 -267 0
-280 84 267 0
280 -84 267 0
280 84 -267 0
-463 -473 -405 0
-463 473 405 0
463 -473 405 0
463 473 -405 0
-168 -97 -136 0
-168 97 136 0
168 -97 136 0
168 97 -136 0
-177 -226 -213 0
-177 226 213 0
177 -226 213 0
177 226 -213 0
-10 -418 -313 0
-10 418 313 0
10 -418 313 0
10 418 -313 0
446 -249 -426 0
446 249 426 0
-446 -249 426 0
-446 249 -426 0
-339 -27 -490 0
-339 27 490 0
339 -27 490 0
339 27 -490 0
419 -411 -427 0
419 427 0
-419 -411 427 0
-419 411 -427 0
93 -457 -387 0
93 457 387 0
-93 -457 387 0
-93 457 -387 0
197 -107 -19 0
197 107 19 0
-197 -107 19 0
-197 107 -19 0
-350 -400 -421 0
-350 400 421 0
350 -400 421 0
350 400 -421 0
-379 -115 -464 0
-379 115 464 0
379 -115 464 0
379 115 -464 0
363 -158 -501 0
363 158 501 0
-363 -158 501 0
-363 158 -501 0
227 -408 -13 0
227 408 13 0
-227 -408 13 0
-227 408 -13 0
-131 -284 -55 0
-131 284 55 0
131 -284 55 0
131 284 -55 0
202 -215 -413 0
202 215 413 0
-202 -215 413 0
-202 215 -413 0
-395 -461 0
-395 397 461 0
395 -397 461 0
395 397 -461 0
302 -407 -153 0
302 407 153 0
-302 -407 153 0
-302 407 -153 0
37 -50 -105 0
37 50 105 0
-37 -50 105 0
-37 50 -105 0
207 -475 -17 0
207 475 0
-207 -475 17 0
-207 475 -17 0
502 -274 -356 0
502 274 356 0
-502 -274 356 0
-502 274 -356 0
7 -468 -273 0
7 468 273 0
-7 -468 273 0
-7 468 -273 0
-430 -172 -120 0
-430 172 120 0
430 -172 120 0
430 172 -120 0
-366 -311 -189 0
-366 311 189 0
366 -311 189 0
366 311 -189 0
283 -431 -188 0
283 431 188 0
-283 -431 188 0
-283 431 -188 0
-211 -240 -2 0
-211 240 2 0
211 -240 2 0
211 240 -2 0
45 -384 -3 0
45 384 3 0
-45 -384 3 0
-45 384 -3 0
482 -406 -35 0
482 406 35 0
-482 -406 35 0
-482 406 -35 0
-253 -351 0
-253 351 47 0
253 -351 47 0
253 351 -47 0
70 -24 -26 0
70 24 26 0
-70 -24 26 0
-70 24 -26 0
194 -334 -191 0
194 334 191 0
-194 -334 191 0
-194 334 -191 0
277 -371 -259 0
277 371 259 0
-277 -371 259 0
-277 371 -259 0
-246 -143 -504 0
-246 143 504 0
246 -143 504 0
246 143 -504 0
98 -263 -185 0
98 263 185 0
-98 -263 185 0
-98 263 -185 0
-458 -20 -243 0
-458 20 243 0
458 243 0
458 20 -243 0
-304 -385 -346 0
-304 385 346 0
304 -385 346 0
304 385 -346 0
-42 -255 -399 0
-42 255 399 0
42 -255 399 0
42 255 -399 0
208 -260 -425 0
208 260 425 0
-208 -260 425 0
-208 260 -425 0
-495 -476 -432 0
-495 476 432 0
495 -476 432 0
495 476 -432 0
-238 -275 -281 0
-238 275 281 0
238 -275 281 0
238 275 -281 0
-129 -349 0
145 129 349 0
-145 -129 349 0
-145 129 -349 0
-123 -306 -278 0
-123 306 278 0
123 -306 278 0
123 306 -278 0
337 -62 -261 0
337 62 261 0
-337 -62 261 0
-337 62 -261 0
-34 -239 -401 0
-34 239 401 0
34 -239 401 0
34 239 -401 0
-442 -179 -40 0
-442 179 40 0
442 -179 40 0
442 179 -40 0
-167 -69 -492 0
-167 69 492 0
167 -69 492 0
167 69 -492 0
416 -180 -359 0
416 180 359 0
-416 -180 0
-416 180 -359 0
-149 -364 -290 0
-149 364 290 0
149 -364 290 0
149 364 -290 0
257 -48 -437 0
257 48 437 0
-257 -48 437 0
-257 48 -437 0
428 -122 -488 0
428 122 488 0
-428 -122 488 0
122 -488 0
116 -114 -355 0
116 114 355 0
-116 -114 355 0
-116 114 -355 0
-137 -79 -181 0
-137 79 181 0
137 -79 181 0
137 79 -181 0
-80 -73 0
-80 352 73 0
80 -352 73 0
80 352 -73 0
-303 -164 -440 0
-303 164 440 0
303 -164 440 0
303 164 -440 0
-222 -118 -176 0
-222 118 176 0
222 -118 176 0
222 118 -176 0
230 -52 -81 0
230 52 0
-230 -52 81 0
-230 52 -81 0
-96 -336 -452 0
-96 336 452 0
96 -336 452 0
96 336 -452 0
233 -196 -296 0
233 196 296 0
-233 -196 296 0
-233 196 -296 0
470 -485 -282 0
470 485 282 0
-485 282 0
-470 485 -282 0
-323 -256 -204 0
-323 256 204 0
323 -256 204 0
323 256 -204 0
-90 -236 -297 0
-90 236 297 0
90 -236 297 0
90 236 -297 0
447 -106 -367 0
447 106 367 0
-447 -106 367 0
-447 -367 0
60 -184 -32 0
60 184 32 0
-60 -184 32 0
-60 184 -32 0
-77 -343 -434 0
-77 343 434 0
77 -343 434 0
77 343 -434 0
330 -235 0
330 235 75 0
-330 -235 75 0
-330 235 -75 0
141 -150 -380 0
141 150 380 0
-141 -150 380 0
-141 150 -380 0
360 -498 -178 0
360 498 178 0
-360 -498 178 0
-360 498 -178 0
-374 -444 -125 0
-374 444 125 0
374 -444 125 0
374 444 -125 0
353 -424 -328 0
353 424 328 0
-353 -424 328 0
-353 424 -328 0
-439 -484 -234 0
-439 484 234 0
439 -484 234 0
439 484 -234 0
-438 -103 -49 0
-438 103 49 0
438 49 0
438 103 -49 0
-459 -88 -341 0
-459 88 341 0
459 -88 341 0
459 88 -341 0
-187 -199 -372 0
-187 199 372 0
187 -199 372 0
187 199 -372 0
-315 -171 -232 0
-315 171 232 0
315 -171 232 0
315 171 -232 0
39 -154 -344 0
39 154 344 0
-39 -154 344 0
-39 154 -344 0
74 -474 -111 0
74 474 111 0
-74 -474 111 0
-74 474 -111 0
-183 -146 0
-248 183 146 0
248 -183 146 0
248 183 -146 0
201 -391 -403 0
201 391 403 0
-201 -391 403 0
-201 391 -403 0
-130 -8 -173 0
-130 8 173 0
130 -8 173 0
130 8 -173 0
506 -508 -305 0
506 508 305 0
-506 -508 305 0
-506 508 -305 0
321 -265 -327 0
321 265 327 0
-321 -265 327 0
-321 265 -327 0
-64 -358 -166 0
-64 358 166 0
64 -358 166 0
64 358 -166 0
-218 -82 -221 0
-218 82 221 0
218 -82 221 0
218 82 -221 0
